p cnf 965 2478
51 -2 -698 0
-51 2 0
-51 698 0
52 -51 -699 0
-52 51 0
-52 699 0
53 -700 -701 0
-53 700 0
-53 701 0
54 -53 -6 0
-54 53 0
-54 6 0
55 -702 -703 0
-55 702 0
-55 703 0
56 -704 -698 0
-56 704 0
-56 698 0
57 -56 -705 0
-57 56 0
-57 705 0
58 -706 -55 0
-58 706 0
-58 55 0
59 -9 -2 0
-59 9 0
-59 2 0
60 -59 -8 0
-60 59 0
-60 8 0
61 -707 -58 0
-61 707 0
-61 58 0
62 -10 -708 0
-62 10 0
-62 708 0
63 -62 -11 0
-63 62 0
-63 11 0
64 -709 -61 0
-64 709 0
-64 61 0
65 -710 -711 0
-65 710 0
-65 711 0
66 -65 -13 0
-66 65 0
-66 13 0
67 -712 -64 0
-67 712 0
-67 64 0
68 -713 -14 0
-68 713 0
-68 14 0
69 -68 -16 0
-69 68 0
-69 16 0
70 -714 -67 0
-70 714 0
-70 67 0
71 -17 -14 0
-71 17 0
-71 14 0
72 -71 -18 0
-72 71 0
-72 18 0
73 -715 -70 0
-73 715 0
-73 70 0
74 -716 -713 0
-74 716 0
-74 713 0
75 -74 -717 0
-75 74 0
-75 717 0
76 -718 -73 0
-76 718 0
-76 73 0
77 -21 -4 0
-77 21 0
-77 4 0
78 -77 -16 0
-78 77 0
-78 16 0
79 -719 -76 0
-79 719 0
-79 76 0
80 -720 -721 0
-80 720 0
-80 721 0
81 -80 -24 0
-81 80 0
-81 24 0
82 -722 -79 0
-82 722 0
-82 79 0
83 -723 -724 0
-83 723 0
-83 724 0
84 -83 -725 0
-84 83 0
-84 725 0
85 -726 -82 0
-85 726 0
-85 82 0
86 -727 -698 0
-86 727 0
-86 698 0
87 -86 -728 0
-87 86 0
-87 728 0
88 -729 -85 0
-88 729 0
-88 85 0
89 -730 -28 0
-89 730 0
-89 28 0
90 -89 -731 0
-90 89 0
-90 731 0
91 -732 -88 0
-91 732 0
-91 88 0
92 -733 -700 0
-92 733 0
-92 700 0
93 -92 -734 0
-93 92 0
-93 734 0
94 -735 -91 0
-94 735 0
-94 91 0
95 -33 -19 0
-95 33 0
-95 19 0
96 -95 -1 0
-96 95 0
-96 1 0
97 -736 -94 0
-97 736 0
-97 94 0
98 -737 -10 0
-98 737 0
-98 10 0
99 -98 -35 0
-99 98 0
-99 35 0
100 -738 -97 0
-100 738 0
-100 97 0
101 -739 -21 0
-101 739 0
-101 21 0
102 -101 -27 0
-102 101 0
-102 27 0
103 -740 -100 0
-103 740 0
-103 100 0
104 -741 -742 0
-104 741 0
-104 742 0
105 -104 -710 0
-105 104 0
-105 710 0
106 -743 -103 0
-106 743 0
-106 103 0
107 -744 -21 0
-107 744 0
-107 21 0
108 -107 -1 0
-108 107 0
-108 1 0
109 -745 -106 0
-109 745 0
-109 106 0
110 -746 -717 0
-110 746 0
-110 717 0
111 -110 -40 0
-111 110 0
-111 40 0
112 -747 -109 0
-112 747 0
-112 109 0
113 -34 -705 0
-113 34 0
-113 705 0
114 -113 -40 0
-114 113 0
-114 40 0
115 -748 -112 0
-115 748 0
-115 112 0
116 -42 -41 0
-116 42 0
-116 41 0
117 -116 -721 0
-117 116 0
-117 721 0
118 -749 -115 0
-118 749 0
-118 115 0
119 -750 -751 0
-119 750 0
-119 751 0
120 -119 -727 0
-120 119 0
-120 727 0
121 -752 -118 0
-121 752 0
-121 118 0
122 -720 -14 0
-122 720 0
-122 14 0
123 -122 -724 0
-123 122 0
-123 724 0
124 -753 -121 0
-124 753 0
-124 121 0
125 -744 -700 0
-125 744 0
-125 700 0
126 -125 -754 0
-126 125 0
-126 754 0
127 -755 -124 0
-127 755 0
-127 124 0
128 -756 -711 0
-128 756 0
-128 711 0
129 -128 -39 0
-129 128 0
-129 39 0
130 -757 -127 0
-130 757 0
-130 127 0
131 -18 -711 0
-131 18 0
-131 711 0
132 -131 -35 0
-132 131 0
-132 35 0
133 -758 -130 0
-133 758 0
-133 130 0
134 -45 -759 0
-134 45 0
-134 759 0
135 -134 -754 0
-135 134 0
-135 754 0
136 -760 -133 0
-136 760 0
-136 133 0
137 -750 -701 0
-137 750 0
-137 701 0
138 -137 -13 0
-138 137 0
-138 13 0
139 -761 -136 0
-139 761 0
-139 136 0
140 -762 -4 0
-140 762 0
-140 4 0
141 -140 -704 0
-141 140 0
-141 704 0
142 -763 -139 0
-142 763 0
-142 139 0
143 -733 -4 0
-143 733 0
-143 4 0
144 -143 -764 0
-144 143 0
-144 764 0
145 -765 -142 0
-145 765 0
-145 142 0
146 -731 -24 0
-146 731 0
-146 24 0
147 -146 -734 0
-147 146 0
-147 734 0
148 -766 -145 0
-148 766 0
-148 145 0
149 -35 -23 0
-149 35 0
-149 23 0
150 -149 -13 0
-150 149 0
-150 13 0
151 -767 -148 0
-151 767 0
-151 148 0
152 -39 -713 0
-152 39 0
-152 713 0
153 -152 -19 0
-153 152 0
-153 19 0
154 -768 -151 0
-154 768 0
-154 151 0
155 -36 -9 0
-155 36 0
-155 9 0
156 -155 -731 0
-156 155 0
-156 731 0
157 -769 -154 0
-157 769 0
-157 154 0
158 -44 -770 0
-158 44 0
-158 770 0
159 -158 -700 0
-159 158 0
-159 700 0
160 -771 -157 0
-160 771 0
-160 157 0
161 -772 -699 0
-161 772 0
-161 699 0
162 -161 -773 0
-162 161 0
-162 773 0
163 -774 -160 0
-163 774 0
-163 160 0
164 -739 -713 0
-164 739 0
-164 713 0
165 -164 -46 0
-165 164 0
-165 46 0
166 -775 -163 0
-166 775 0
-166 163 0
167 -776 -701 0
-167 776 0
-167 701 0
168 -167 -734 0
-168 167 0
-168 734 0
169 -777 -166 0
-169 777 0
-169 166 0
170 -42 -739 0
-170 42 0
-170 739 0
171 -170 -48 0
-171 170 0
-171 48 0
172 -778 -169 0
-172 778 0
-172 169 0
173 -42 -751 0
-173 42 0
-173 751 0
174 -173 -29 0
-174 173 0
-174 29 0
175 -779 -172 0
-175 779 0
-175 172 0
176 -756 -18 0
-176 756 0
-176 18 0
177 -176 -730 0
-177 176 0
-177 730 0
178 -780 -175 0
-178 780 0
-178 175 0
179 -23 -781 0
-179 23 0
-179 781 0
180 -179 -46 0
-180 179 0
-180 46 0
181 -782 -178 0
-181 782 0
-181 178 0
182 -783 -19 0
-182 783 0
-182 19 0
183 -182 -728 0
-183 182 0
-183 728 0
184 -784 -181 0
-184 784 0
-184 181 0
185 -721 -711 0
-185 721 0
-185 711 0
186 -185 -4 0
-186 185 0
-186 4 0
187 -785 -184 0
-187 785 0
-187 184 0
188 -46 -744 0
-188 46 0
-188 744 0
189 -188 -20 0
-189 188 0
-189 20 0
190 -786 -187 0
-190 786 0
-190 187 0
191 -787 -730 0
-191 787 0
-191 730 0
192 -191 -717 0
-192 191 0
-192 717 0
193 -788 -190 0
-193 788 0
-193 190 0
194 -789 -701 0
-194 789 0
-194 701 0
195 -194 -8 0
-195 194 0
-195 8 0
196 -790 -193 0
-196 790 0
-196 193 0
197 -739 -721 0
-197 739 0
-197 721 0
198 -197 -711 0
-198 197 0
-198 711 0
199 -791 -196 0
-199 791 0
-199 196 0
200 -43 -27 0
-200 43 0
-200 27 0
201 -200 -717 0
-201 200 0
-201 717 0
202 -792 -199 0
-202 792 0
-202 199 0
203 -38 -724 0
-203 38 0
-203 724 0
204 -203 -16 0
-204 203 0
-204 16 0
205 -793 -202 0
-205 793 0
-205 202 0
206 -34 -19 0
-206 34 0
-206 19 0
207 -206 -29 0
-207 206 0
-207 29 0
208 -794 -205 0
-208 794 0
-208 205 0
209 -720 -698 0
-209 720 0
-209 698 0
210 -209 -723 0
-210 209 0
-210 723 0
211 -795 -208 0
-211 795 0
-211 208 0
212 -787 -25 0
-212 787 0
-212 25 0
213 -212 -13 0
-213 212 0
-213 13 0
214 -796 -211 0
-214 796 0
-214 211 0
215 -19 -17 0
-215 19 0
-215 17 0
216 -215 -762 0
-216 215 0
-216 762 0
217 -797 -214 0
-217 797 0
-217 214 0
218 -37 -739 0
-218 37 0
-218 739 0
219 -218 -30 0
-219 218 0
-219 30 0
220 -798 -217 0
-220 798 0
-220 217 0
221 -38 -739 0
-221 38 0
-221 739 0
222 -221 -11 0
-222 221 0
-222 11 0
223 -799 -220 0
-223 799 0
-223 220 0
224 -727 -9 0
-224 727 0
-224 9 0
225 -224 -705 0
-225 224 0
-225 705 0
226 -800 -223 0
-226 800 0
-226 223 0
227 -22 -708 0
-227 22 0
-227 708 0
228 -227 -11 0
-228 227 0
-228 11 0
229 -801 -226 0
-229 801 0
-229 226 0
230 -19 -4 0
-230 19 0
-230 4 0
231 -230 -708 0
-231 230 0
-231 708 0
232 -802 -229 0
-232 802 0
-232 229 0
233 -27 -698 0
-233 27 0
-233 698 0
234 -233 -734 0
-234 233 0
-234 734 0
235 -803 -232 0
-235 803 0
-235 232 0
236 -746 -741 0
-236 746 0
-236 741 0
237 -236 -704 0
-237 236 0
-237 704 0
238 -804 -235 0
-238 804 0
-238 235 0
239 -721 -710 0
-239 721 0
-239 710 0
240 -239 -32 0
-240 239 0
-240 32 0
241 -805 -238 0
-241 805 0
-241 238 0
242 -43 -727 0
-242 43 0
-242 727 0
243 -242 -32 0
-243 242 0
-243 32 0
244 -806 -241 0
-244 806 0
-244 241 0
245 -48 -727 0
-245 48 0
-245 727 0
246 -245 -705 0
-246 245 0
-246 705 0
247 -807 -244 0
-247 807 0
-247 244 0
248 -730 -15 0
-248 730 0
-248 15 0
249 -248 -11 0
-249 248 0
-249 11 0
250 -808 -247 0
-250 808 0
-250 247 0
251 -16 -14 0
-251 16 0
-251 14 0
252 -251 -773 0
-252 251 0
-252 773 0
253 -809 -250 0
-253 809 0
-253 250 0
254 -45 -810 0
-254 45 0
-254 810 0
255 -254 -35 0
-255 254 0
-255 35 0
256 -811 -253 0
-256 811 0
-256 253 0
257 -30 -812 0
-257 30 0
-257 812 0
258 -257 -32 0
-258 257 0
-258 32 0
259 -813 -256 0
-259 813 0
-259 256 0
260 -42 -17 0
-260 42 0
-260 17 0
261 -260 -46 0
-261 260 0
-261 46 0
262 -814 -259 0
-262 814 0
-262 259 0
263 -22 -815 0
-263 22 0
-263 815 0
264 -263 -40 0
-264 263 0
-264 40 0
265 -816 -262 0
-265 816 0
-265 262 0
266 -38 -31 0
-266 38 0
-266 31 0
267 -266 -772 0
-267 266 0
-267 772 0
268 -817 -265 0
-268 817 0
-268 265 0
269 -33 -12 0
-269 33 0
-269 12 0
270 -269 -698 0
-270 269 0
-270 698 0
271 -818 -268 0
-271 818 0
-271 268 0
272 -742 -2 0
-272 742 0
-272 2 0
273 -272 -29 0
-273 272 0
-273 29 0
274 -819 -271 0
-274 819 0
-274 271 0
275 -810 -781 0
-275 810 0
-275 781 0
276 -275 -772 0
-276 275 0
-276 772 0
277 -820 -274 0
-277 820 0
-277 274 0
278 -815 -2 0
-278 815 0
-278 2 0
279 -278 -705 0
-279 278 0
-279 705 0
280 -821 -277 0
-280 821 0
-280 277 0
281 -733 -781 0
-281 733 0
-281 781 0
282 -281 -13 0
-282 281 0
-282 13 0
283 -822 -280 0
-283 822 0
-283 280 0
284 -744 -716 0
-284 744 0
-284 716 0
285 -284 -725 0
-285 284 0
-285 725 0
286 -823 -283 0
-286 823 0
-286 283 0
287 -42 -38 0
-287 42 0
-287 38 0
288 -287 -789 0
-288 287 0
-288 789 0
289 -824 -286 0
-289 824 0
-289 286 0
290 -33 -724 0
-290 33 0
-290 724 0
291 -290 -5 0
-291 290 0
-291 5 0
292 -825 -289 0
-292 825 0
-292 289 0
293 -787 -21 0
-293 787 0
-293 21 0
294 -293 -762 0
-294 293 0
-294 762 0
295 -826 -292 0
-295 826 0
-295 292 0
296 -44 -33 0
-296 44 0
-296 33 0
297 -296 -29 0
-297 296 0
-297 29 0
298 -827 -295 0
-298 827 0
-298 295 0
299 -26 -708 0
-299 26 0
-299 708 0
300 -299 -705 0
-300 299 0
-300 705 0
301 -828 -298 0
-301 828 0
-301 298 0
302 -46 -19 0
-302 46 0
-302 19 0
303 -302 -6 0
-303 302 0
-303 6 0
304 -829 -301 0
-304 829 0
-304 301 0
305 -720 -16 0
-305 720 0
-305 16 0
306 -305 -13 0
-306 305 0
-306 13 0
307 -830 -304 0
-307 830 0
-307 304 0
308 -95 -24 0
-308 95 0
-308 24 0
309 -831 -307 0
-309 831 0
-309 307 0
310 -49 -44 0
-310 49 0
-310 44 0
311 -310 -716 0
-311 310 0
-311 716 0
312 -832 -309 0
-312 832 0
-312 309 0
313 -759 -9 0
-313 759 0
-313 9 0
314 -313 -705 0
-314 313 0
-314 705 0
315 -833 -312 0
-315 833 0
-315 312 0
316 -24 -21 0
-316 24 0
-316 21 0
317 -316 -32 0
-317 316 0
-317 32 0
318 -834 -315 0
-318 834 0
-318 315 0
319 -50 -727 0
-319 50 0
-319 727 0
320 -319 -700 0
-320 319 0
-320 700 0
321 -835 -318 0
-321 835 0
-321 318 0
322 -713 -698 0
-322 713 0
-322 698 0
323 -322 -725 0
-323 322 0
-323 725 0
324 -836 -321 0
-324 836 0
-324 321 0
325 -723 -13 0
-325 723 0
-325 13 0
326 -325 -728 0
-326 325 0
-326 728 0
327 -837 -324 0
-327 837 0
-327 324 0
328 -14 -12 0
-328 14 0
-328 12 0
329 -328 -3 0
-329 328 0
-329 3 0
330 -838 -327 0
-330 838 0
-330 327 0
331 -23 -704 0
-331 23 0
-331 704 0
332 -331 -40 0
-332 331 0
-332 40 0
333 -839 -330 0
-333 839 0
-333 330 0
334 -756 -727 0
-334 756 0
-334 727 0
335 -334 -3 0
-335 334 0
-335 3 0
336 -840 -333 0
-336 840 0
-336 333 0
337 -741 -9 0
-337 741 0
-337 9 0
338 -337 -772 0
-338 337 0
-338 772 0
339 -841 -336 0
-339 841 0
-339 336 0
340 -43 -14 0
-340 43 0
-340 14 0
341 -340 -701 0
-341 340 0
-341 701 0
342 -842 -339 0
-342 842 0
-342 339 0
343 -49 -781 0
-343 49 0
-343 781 0
344 -343 -730 0
-344 343 0
-344 730 0
345 -843 -342 0
-345 843 0
-345 342 0
346 -787 -4 0
-346 787 0
-346 4 0
347 -346 -699 0
-347 346 0
-347 699 0
348 -844 -345 0
-348 844 0
-348 345 0
349 -756 -744 0
-349 756 0
-349 744 0
350 -349 -759 0
-350 349 0
-350 759 0
351 -845 -348 0
-351 845 0
-351 348 0
352 -51 -773 0
-352 51 0
-352 773 0
353 -846 -351 0
-353 846 0
-353 351 0
354 -49 -15 0
-354 49 0
-354 15 0
355 -354 -728 0
-355 354 0
-355 728 0
356 -847 -353 0
-356 847 0
-356 353 0
357 -49 -19 0
-357 49 0
-357 19 0
358 -357 -754 0
-358 357 0
-358 754 0
359 -848 -356 0
-359 848 0
-359 356 0
360 -50 -756 0
-360 50 0
-360 756 0
361 -360 -16 0
-361 360 0
-361 16 0
362 -849 -359 0
-362 849 0
-362 359 0
363 -35 -8 0
-363 35 0
-363 8 0
364 -363 -773 0
-364 363 0
-364 773 0
365 -850 -362 0
-365 850 0
-365 362 0
366 -851 -45 0
-366 851 0
-366 45 0
367 -366 -852 0
-367 366 0
-367 852 0
368 -853 -365 0
-368 853 0
-368 365 0
369 -44 -23 0
-369 44 0
-369 23 0
370 -369 -705 0
-370 369 0
-370 705 0
371 -854 -368 0
-371 854 0
-371 368 0
372 -28 -10 0
-372 28 0
-372 10 0
373 -372 -12 0
-373 372 0
-373 12 0
374 -855 -371 0
-374 855 0
-374 371 0
375 -42 -15 0
-375 42 0
-375 15 0
376 -375 -724 0
-376 375 0
-376 724 0
377 -856 -374 0
-377 856 0
-377 374 0
378 -772 -9 0
-378 772 0
-378 9 0
379 -378 -764 0
-379 378 0
-379 764 0
380 -857 -377 0
-380 857 0
-380 377 0
381 -38 -17 0
-381 38 0
-381 17 0
382 -381 -3 0
-382 381 0
-382 3 0
383 -858 -380 0
-383 858 0
-383 380 0
384 -812 -700 0
-384 812 0
-384 700 0
385 -384 -20 0
-385 384 0
-385 20 0
386 -859 -383 0
-386 859 0
-386 383 0
387 -750 -41 0
-387 750 0
-387 41 0
388 -387 -32 0
-388 387 0
-388 32 0
389 -860 -386 0
-389 860 0
-389 386 0
390 -19 -9 0
-390 19 0
-390 9 0
391 -390 -40 0
-391 390 0
-391 40 0
392 -861 -389 0
-392 861 0
-392 389 0
393 -41 -25 0
-393 41 0
-393 25 0
394 -393 -762 0
-394 393 0
-394 762 0
395 -862 -392 0
-395 862 0
-395 392 0
396 -27 -704 0
-396 27 0
-396 704 0
397 -396 -8 0
-397 396 0
-397 8 0
398 -863 -395 0
-398 863 0
-398 395 0
399 -762 -21 0
-399 762 0
-399 21 0
400 -399 -698 0
-400 399 0
-400 698 0
401 -864 -398 0
-401 864 0
-401 398 0
402 -43 -4 0
-402 43 0
-402 4 0
403 -402 -5 0
-403 402 0
-403 5 0
404 -865 -401 0
-404 865 0
-404 401 0
405 -50 -701 0
-405 50 0
-405 701 0
406 -405 -730 0
-406 405 0
-406 730 0
407 -866 -404 0
-407 866 0
-407 404 0
408 -13 -711 0
-408 13 0
-408 711 0
409 -408 -30 0
-409 408 0
-409 30 0
410 -867 -407 0
-410 867 0
-410 407 0
411 -36 -700 0
-411 36 0
-411 700 0
412 -411 -32 0
-412 411 0
-412 32 0
413 -868 -410 0
-413 868 0
-413 410 0
414 -762 -812 0
-414 762 0
-414 812 0
415 -414 -731 0
-415 414 0
-415 731 0
416 -869 -413 0
-416 869 0
-416 413 0
417 -23 -815 0
-417 23 0
-417 815 0
418 -417 -762 0
-418 417 0
-418 762 0
419 -870 -416 0
-419 870 0
-419 416 0
420 -49 -18 0
-420 49 0
-420 18 0
421 -420 -5 0
-421 420 0
-421 5 0
422 -871 -419 0
-422 871 0
-422 419 0
423 -741 -29 0
-423 741 0
-423 29 0
424 -423 -734 0
-424 423 0
-424 734 0
425 -872 -422 0
-425 872 0
-425 422 0
426 -313 -14 0
-426 313 0
-426 14 0
427 -873 -425 0
-427 873 0
-427 425 0
428 -705 -3 0
-428 705 0
-428 3 0
429 -428 -11 0
-429 428 0
-429 11 0
430 -874 -427 0
-430 874 0
-430 427 0
431 -710 -701 0
-431 710 0
-431 701 0
432 -431 -30 0
-432 431 0
-432 30 0
433 -875 -430 0
-433 875 0
-433 430 0
434 -720 -781 0
-434 720 0
-434 781 0
435 -434 -704 0
-435 434 0
-435 704 0
436 -876 -433 0
-436 876 0
-436 433 0
437 -721 -21 0
-437 721 0
-437 21 0
438 -437 -4 0
-438 437 0
-438 4 0
439 -877 -436 0
-439 877 0
-439 436 0
440 -737 -701 0
-440 737 0
-440 701 0
441 -440 -24 0
-441 440 0
-441 24 0
442 -878 -439 0
-442 878 0
-442 439 0
443 -727 -1 0
-443 727 0
-443 1 0
444 -443 -11 0
-444 443 0
-444 11 0
445 -879 -442 0
-445 879 0
-445 442 0
446 -750 -35 0
-446 750 0
-446 35 0
447 -446 -1 0
-447 446 0
-447 1 0
448 -880 -445 0
-448 880 0
-448 445 0
449 -27 -15 0
-449 27 0
-449 15 0
450 -449 -5 0
-450 449 0
-450 5 0
451 -881 -448 0
-451 881 0
-451 448 0
452 -43 -721 0
-452 43 0
-452 721 0
453 -452 -764 0
-453 452 0
-453 764 0
454 -882 -451 0
-454 882 0
-454 451 0
455 -46 -751 0
-455 46 0
-455 751 0
456 -455 -717 0
-456 455 0
-456 717 0
457 -883 -454 0
-457 883 0
-457 454 0
458 -45 -770 0
-458 45 0
-458 770 0
459 -458 -5 0
-459 458 0
-459 5 0
460 -884 -457 0
-460 884 0
-460 457 0
461 -49 -750 0
-461 49 0
-461 750 0
462 -461 -710 0
-462 461 0
-462 710 0
463 -885 -460 0
-463 885 0
-463 460 0
464 -21 -14 0
-464 21 0
-464 14 0
465 -464 -776 0
-465 464 0
-465 776 0
466 -886 -463 0
-466 886 0
-466 463 0
467 -34 -4 0
-467 34 0
-467 4 0
468 -467 -731 0
-468 467 0
-468 731 0
469 -887 -466 0
-469 887 0
-469 466 0
470 -739 -742 0
-470 739 0
-470 742 0
471 -470 -787 0
-471 470 0
-471 787 0
472 -888 -469 0
-472 888 0
-472 469 0
473 -38 -704 0
-473 38 0
-473 704 0
474 -473 -754 0
-474 473 0
-474 754 0
475 -889 -472 0
-475 889 0
-475 472 0
476 -756 -35 0
-476 756 0
-476 35 0
477 -476 -46 0
-477 476 0
-477 46 0
478 -890 -475 0
-478 890 0
-478 475 0
479 -45 -1 0
-479 45 0
-479 1 0
480 -479 -47 0
-480 479 0
-480 47 0
481 -891 -478 0
-481 891 0
-481 478 0
482 -746 -29 0
-482 746 0
-482 29 0
483 -482 -773 0
-483 482 0
-483 773 0
484 -892 -481 0
-484 892 0
-484 481 0
485 -49 -24 0
-485 49 0
-485 24 0
486 -485 -773 0
-486 485 0
-486 773 0
487 -893 -484 0
-487 893 0
-487 484 0
488 -31 -18 0
-488 31 0
-488 18 0
489 -488 -705 0
-489 488 0
-489 705 0
490 -894 -487 0
-490 894 0
-490 487 0
491 -701 -698 0
-491 701 0
-491 698 0
492 -491 -730 0
-492 491 0
-492 730 0
493 -895 -490 0
-493 895 0
-493 490 0
494 -26 -23 0
-494 26 0
-494 23 0
495 -494 -728 0
-495 494 0
-495 728 0
496 -896 -493 0
-496 896 0
-496 493 0
497 -783 -713 0
-497 783 0
-497 713 0
498 -497 -764 0
-498 497 0
-498 764 0
499 -897 -496 0
-499 897 0
-499 496 0
500 -898 -711 0
-500 898 0
-500 711 0
501 -500 -705 0
-501 500 0
-501 705 0
502 -899 -499 0
-502 899 0
-502 499 0
503 -46 -698 0
-503 46 0
-503 698 0
504 -503 -731 0
-504 503 0
-504 731 0
505 -900 -502 0
-505 900 0
-505 502 0
506 -751 -704 0
-506 751 0
-506 704 0
507 -506 -773 0
-507 506 0
-507 773 0
508 -901 -505 0
-508 901 0
-508 505 0
509 -746 -739 0
-509 746 0
-509 739 0
510 -509 -20 0
-510 509 0
-510 20 0
511 -902 -508 0
-511 902 0
-511 508 0
512 -45 -772 0
-512 45 0
-512 772 0
513 -512 -754 0
-513 512 0
-513 754 0
514 -903 -511 0
-514 903 0
-514 511 0
515 -716 -14 0
-515 716 0
-515 14 0
516 -515 -754 0
-516 515 0
-516 754 0
517 -904 -514 0
-517 904 0
-517 514 0
518 -45 -751 0
-518 45 0
-518 751 0
519 -518 -730 0
-519 518 0
-519 730 0
520 -905 -517 0
-520 905 0
-520 517 0
521 -14 -7 0
-521 14 0
-521 7 0
522 -521 -2 0
-522 521 0
-522 2 0
523 -906 -520 0
-523 906 0
-523 520 0
524 -39 -37 0
-524 39 0
-524 37 0
525 -524 -26 0
-525 524 0
-525 26 0
526 -907 -523 0
-526 907 0
-526 523 0
527 -42 -18 0
-527 42 0
-527 18 0
528 -527 -773 0
-528 527 0
-528 773 0
529 -908 -526 0
-529 908 0
-529 526 0
530 -15 -710 0
-530 15 0
-530 710 0
531 -530 -24 0
-531 530 0
-531 24 0
532 -909 -529 0
-532 909 0
-532 529 0
533 -756 -710 0
-533 756 0
-533 710 0
534 -533 -705 0
-534 533 0
-534 705 0
535 -910 -532 0
-535 910 0
-535 532 0
536 -28 -713 0
-536 28 0
-536 713 0
537 -536 -3 0
-537 536 0
-537 3 0
538 -911 -535 0
-538 911 0
-538 535 0
539 -746 -713 0
-539 746 0
-539 713 0
540 -539 -20 0
-540 539 0
-540 20 0
541 -912 -538 0
-541 912 0
-541 538 0
542 -48 -36 0
-542 48 0
-542 36 0
543 -542 -776 0
-543 542 0
-543 776 0
544 -913 -541 0
-544 913 0
-544 541 0
545 -851 -744 0
-545 851 0
-545 744 0
546 -545 -770 0
-546 545 0
-546 770 0
547 -914 -544 0
-547 914 0
-547 544 0
548 -756 -731 0
-548 756 0
-548 731 0
549 -548 -6 0
-549 548 0
-549 6 0
550 -915 -547 0
-550 915 0
-550 547 0
551 -36 -810 0
-551 36 0
-551 810 0
552 -551 -4 0
-552 551 0
-552 4 0
553 -916 -550 0
-553 916 0
-553 550 0
554 -42 -25 0
-554 42 0
-554 25 0
555 -554 -815 0
-555 554 0
-555 815 0
556 -917 -553 0
-556 917 0
-556 553 0
557 -717 -699 0
-557 717 0
-557 699 0
558 -557 -32 0
-558 557 0
-558 32 0
559 -918 -556 0
-559 918 0
-559 556 0
560 -744 -12 0
-560 744 0
-560 12 0
561 -560 -47 0
-561 560 0
-561 47 0
562 -919 -559 0
-562 919 0
-562 559 0
563 -705 -1 0
-563 705 0
-563 1 0
564 -563 -11 0
-564 563 0
-564 11 0
565 -920 -562 0
-565 920 0
-565 562 0
566 -810 -6 0
-566 810 0
-566 6 0
567 -566 -47 0
-567 566 0
-567 47 0
568 -921 -565 0
-568 921 0
-568 565 0
569 -744 -23 0
-569 744 0
-569 23 0
570 -569 -705 0
-570 569 0
-570 705 0
571 -922 -568 0
-571 922 0
-571 568 0
572 -762 -34 0
-572 762 0
-572 34 0
573 -572 -7 0
-573 572 0
-573 7 0
574 -923 -571 0
-574 923 0
-574 571 0
575 -41 -39 0
-575 41 0
-575 39 0
576 -575 -5 0
-576 575 0
-576 5 0
577 -924 -574 0
-577 924 0
-577 574 0
578 -724 -815 0
-578 724 0
-578 815 0
579 -578 -772 0
-579 578 0
-579 772 0
580 -925 -577 0
-580 925 0
-580 577 0
581 -851 -34 0
-581 851 0
-581 34 0
582 -581 -23 0
-582 581 0
-582 23 0
583 -926 -580 0
-583 926 0
-583 580 0
584 -815 -742 0
-584 815 0
-584 742 0
585 -584 -29 0
-585 584 0
-585 29 0
586 -927 -583 0
-586 927 0
-586 583 0
587 -751 -6 0
-587 751 0
-587 6 0
588 -587 -773 0
-588 587 0
-588 773 0
589 -928 -586 0
-589 928 0
-589 586 0
590 -44 -710 0
-590 44 0
-590 710 0
591 -590 -7 0
-591 590 0
-591 7 0
592 -929 -589 0
-592 929 0
-592 589 0
593 -15 -9 0
-593 15 0
-593 9 0
594 -593 -5 0
-594 593 0
-594 5 0
595 -930 -592 0
-595 930 0
-595 592 0
596 -37 -17 0
-596 37 0
-596 17 0
597 -596 -45 0
-597 596 0
-597 45 0
598 -931 -595 0
-598 931 0
-598 595 0
599 -762 -725 0
-599 762 0
-599 725 0
600 -599 -717 0
-600 599 0
-600 717 0
601 -932 -598 0
-601 932 0
-601 598 0
602 -28 -15 0
-602 28 0
-602 15 0
603 -602 -16 0
-603 602 0
-603 16 0
604 -933 -601 0
-604 933 0
-604 601 0
605 -744 -22 0
-605 744 0
-605 22 0
606 -605 -29 0
-606 605 0
-606 29 0
607 -934 -604 0
-607 934 0
-607 604 0
608 -759 -746 0
-608 759 0
-608 746 0
609 -608 -32 0
-609 608 0
-609 32 0
610 -935 -607 0
-610 935 0
-610 607 0
611 -898 -783 0
-611 898 0
-611 783 0
612 -611 -705 0
-612 611 0
-612 705 0
613 -936 -610 0
-613 936 0
-613 610 0
614 -331 -6 0
-614 331 0
-614 6 0
615 -937 -613 0
-615 937 0
-615 613 0
616 -48 -815 0
-616 48 0
-616 815 0
617 -616 -6 0
-617 616 0
-617 6 0
618 -938 -615 0
-618 938 0
-618 615 0
619 -19 -18 0
-619 19 0
-619 18 0
620 -619 -699 0
-620 619 0
-620 699 0
621 -939 -618 0
-621 939 0
-621 618 0
622 -815 -6 0
-622 815 0
-622 6 0
623 -622 -47 0
-623 622 0
-623 47 0
624 -940 -621 0
-624 940 0
-624 621 0
625 -783 -21 0
-625 783 0
-625 21 0
626 -625 -773 0
-626 625 0
-626 773 0
627 -941 -624 0
-627 941 0
-627 624 0
628 -47 -8 0
-628 47 0
-628 8 0
629 -628 -40 0
-629 628 0
-629 40 0
630 -942 -627 0
-630 942 0
-630 627 0
631 -49 -744 0
-631 49 0
-631 744 0
632 -631 -7 0
-632 631 0
-632 7 0
633 -943 -630 0
-633 943 0
-633 630 0
634 -50 -34 0
-634 50 0
-634 34 0
635 -634 -717 0
-635 634 0
-635 717 0
636 -944 -633 0
-636 944 0
-636 633 0
637 -7 -5 0
-637 7 0
-637 5 0
638 -637 -708 0
-638 637 0
-638 708 0
639 -945 -636 0
-639 945 0
-639 636 0
640 -34 -16 0
-640 34 0
-640 16 0
641 -640 -13 0
-641 640 0
-641 13 0
642 -946 -639 0
-642 946 0
-642 639 0
643 -787 -724 0
-643 787 0
-643 724 0
644 -643 -47 0
-644 643 0
-644 47 0
645 -947 -642 0
-645 947 0
-645 642 0
646 -26 -772 0
-646 26 0
-646 772 0
647 -646 -24 0
-647 646 0
-647 24 0
648 -948 -645 0
-648 948 0
-648 645 0
649 -46 -26 0
-649 46 0
-649 26 0
650 -649 -699 0
-650 649 0
-650 699 0
651 -949 -648 0
-651 949 0
-651 648 0
652 -224 -699 0
-652 224 0
-652 699 0
653 -950 -651 0
-653 950 0
-653 651 0
654 -22 -852 0
-654 22 0
-654 852 0
655 -654 -1 0
-655 654 0
-655 1 0
656 -951 -653 0
-656 951 0
-656 653 0
657 -31 -23 0
-657 31 0
-657 23 0
658 -657 -772 0
-658 657 0
-658 772 0
659 -952 -656 0
-659 952 0
-659 656 0
660 -35 -751 0
-660 35 0
-660 751 0
661 -660 -3 0
-661 660 0
-661 3 0
662 -953 -659 0
-662 953 0
-662 659 0
663 -733 -724 0
-663 733 0
-663 724 0
664 -663 -11 0
-664 663 0
-664 11 0
665 -954 -662 0
-665 954 0
-665 662 0
666 -14 -698 0
-666 14 0
-666 698 0
667 -666 -708 0
-667 666 0
-667 708 0
668 -955 -665 0
-668 955 0
-668 665 0
669 -851 -710 0
-669 851 0
-669 710 0
670 -669 -728 0
-670 669 0
-670 728 0
671 -956 -668 0
-671 956 0
-671 668 0
672 -789 -852 0
-672 789 0
-672 852 0
673 -672 -725 0
-673 672 0
-673 725 0
674 -957 -671 0
-674 957 0
-674 671 0
675 -851 -731 0
-675 851 0
-675 731 0
676 -675 -47 0
-676 675 0
-676 47 0
677 -958 -674 0
-677 958 0
-677 674 0
678 -254 -754 0
-678 254 0
-678 754 0
679 -959 -677 0
-679 959 0
-679 677 0
680 -22 -742 0
-680 22 0
-680 742 0
681 -680 -731 0
-681 680 0
-681 731 0
682 -960 -679 0
-682 960 0
-682 679 0
683 -39 -23 0
-683 39 0
-683 23 0
684 -683 -730 0
-684 683 0
-684 730 0
685 -961 -682 0
-685 961 0
-685 682 0
686 -759 -724 0
-686 759 0
-686 724 0
687 -686 -734 0
-687 686 0
-687 734 0
688 -962 -685 0
-688 962 0
-688 685 0
689 -36 -33 0
-689 36 0
-689 33 0
690 -689 -14 0
-690 689 0
-690 14 0
691 -963 -688 0
-691 963 0
-691 688 0
692 -711 -4 0
-692 711 0
-692 4 0
693 -692 -734 0
-693 692 0
-693 734 0
694 -964 -691 0
-694 964 0
-694 691 0
695 -49 -789 0
-695 49 0
-695 789 0
696 -695 -24 0
-696 695 0
-696 24 0
697 -965 -694 0
-697 965 0
-697 694 0
-698 -1 0
698 1 0
-699 -3 0
699 3 0
-700 -5 0
700 5 0
-701 -4 0
701 4 0
-702 -54 0
702 54 0
-703 -52 0
703 52 0
-704 -7 0
704 7 0
-705 -8 0
705 8 0
-706 -57 0
706 57 0
-707 -60 0
707 60 0
-708 -2 0
708 2 0
-709 -63 0
709 63 0
-710 -12 0
710 12 0
-711 -9 0
711 9 0
-712 -66 0
712 66 0
-713 -15 0
713 15 0
-714 -69 0
714 69 0
-715 -72 0
715 72 0
-716 -19 0
716 19 0
-717 -20 0
717 20 0
-718 -75 0
718 75 0
-719 -78 0
719 78 0
-720 -23 0
720 23 0
-721 -22 0
721 22 0
-722 -81 0
722 81 0
-723 -26 0
723 26 0
-724 -25 0
724 25 0
-725 -11 0
725 11 0
-726 -84 0
726 84 0
-727 -27 0
727 27 0
-728 -24 0
728 24 0
-729 -87 0
729 87 0
-730 -29 0
730 29 0
-731 -30 0
731 30 0
-732 -90 0
732 90 0
-733 -31 0
733 31 0
-734 -32 0
734 32 0
-735 -93 0
735 93 0
-736 -96 0
736 96 0
-737 -34 0
737 34 0
-738 -99 0
738 99 0
-739 -36 0
739 36 0
-740 -102 0
740 102 0
-741 -37 0
741 37 0
-742 -17 0
742 17 0
-743 -105 0
743 105 0
-744 -38 0
744 38 0
-745 -108 0
745 108 0
-746 -39 0
746 39 0
-747 -111 0
747 111 0
-748 -114 0
748 114 0
-749 -117 0
749 117 0
-750 -43 0
750 43 0
-751 -21 0
751 21 0
-752 -120 0
752 120 0
-753 -123 0
753 123 0
-754 -40 0
754 40 0
-755 -126 0
755 126 0
-756 -42 0
756 42 0
-757 -129 0
757 129 0
-758 -132 0
758 132 0
-759 -44 0
759 44 0
-760 -135 0
760 135 0
-761 -138 0
761 138 0
-762 -46 0
762 46 0
-763 -141 0
763 141 0
-764 -6 0
764 6 0
-765 -144 0
765 144 0
-766 -147 0
766 147 0
-767 -150 0
767 150 0
-768 -153 0
768 153 0
-769 -156 0
769 156 0
-770 -35 0
770 35 0
-771 -159 0
771 159 0
-772 -16 0
772 16 0
-773 -47 0
773 47 0
-774 -162 0
774 162 0
-775 -165 0
775 165 0
-776 -13 0
776 13 0
-777 -168 0
777 168 0
-778 -171 0
778 171 0
-779 -174 0
779 174 0
-780 -177 0
780 177 0
-781 -14 0
781 14 0
-782 -180 0
782 180 0
-783 -41 0
783 41 0
-784 -183 0
784 183 0
-785 -186 0
785 186 0
-786 -189 0
786 189 0
-787 -45 0
787 45 0
-788 -192 0
788 192 0
-789 -48 0
789 48 0
-790 -195 0
790 195 0
-791 -198 0
791 198 0
-792 -201 0
792 201 0
-793 -204 0
793 204 0
-794 -207 0
794 207 0
-795 -210 0
795 210 0
-796 -213 0
796 213 0
-797 -216 0
797 216 0
-798 -219 0
798 219 0
-799 -222 0
799 222 0
-800 -225 0
800 225 0
-801 -228 0
801 228 0
-802 -231 0
802 231 0
-803 -234 0
803 234 0
-804 -237 0
804 237 0
-805 -240 0
805 240 0
-806 -243 0
806 243 0
-807 -246 0
807 246 0
-808 -249 0
808 249 0
-809 -252 0
809 252 0
-810 -33 0
810 33 0
-811 -255 0
811 255 0
-812 -28 0
812 28 0
-813 -258 0
813 258 0
-814 -261 0
814 261 0
-815 -18 0
815 18 0
-816 -264 0
816 264 0
-817 -267 0
817 267 0
-818 -270 0
818 270 0
-819 -273 0
819 273 0
-820 -276 0
820 276 0
-821 -279 0
821 279 0
-822 -282 0
822 282 0
-823 -285 0
823 285 0
-824 -288 0
824 288 0
-825 -291 0
825 291 0
-826 -294 0
826 294 0
-827 -297 0
827 297 0
-828 -300 0
828 300 0
-829 -303 0
829 303 0
-830 -306 0
830 306 0
-831 -308 0
831 308 0
-832 -311 0
832 311 0
-833 -314 0
833 314 0
-834 -317 0
834 317 0
-835 -320 0
835 320 0
-836 -323 0
836 323 0
-837 -326 0
837 326 0
-838 -329 0
838 329 0
-839 -332 0
839 332 0
-840 -335 0
840 335 0
-841 -338 0
841 338 0
-842 -341 0
842 341 0
-843 -344 0
843 344 0
-844 -347 0
844 347 0
-845 -350 0
845 350 0
-846 -352 0
846 352 0
-847 -355 0
847 355 0
-848 -358 0
848 358 0
-849 -361 0
849 361 0
-850 -364 0
850 364 0
-851 -49 0
851 49 0
-852 -10 0
852 10 0
-853 -367 0
853 367 0
-854 -370 0
854 370 0
-855 -373 0
855 373 0
-856 -376 0
856 376 0
-857 -379 0
857 379 0
-858 -382 0
858 382 0
-859 -385 0
859 385 0
-860 -388 0
860 388 0
-861 -391 0
861 391 0
-862 -394 0
862 394 0
-863 -397 0
863 397 0
-864 -400 0
864 400 0
-865 -403 0
865 403 0
-866 -406 0
866 406 0
-867 -409 0
867 409 0
-868 -412 0
868 412 0
-869 -415 0
869 415 0
-870 -418 0
870 418 0
-871 -421 0
871 421 0
-872 -424 0
872 424 0
-873 -426 0
873 426 0
-874 -429 0
874 429 0
-875 -432 0
875 432 0
-876 -435 0
876 435 0
-877 -438 0
877 438 0
-878 -441 0
878 441 0
-879 -444 0
879 444 0
-880 -447 0
880 447 0
-881 -450 0
881 450 0
-882 -453 0
882 453 0
-883 -456 0
883 456 0
-884 -459 0
884 459 0
-885 -462 0
885 462 0
-886 -465 0
886 465 0
-887 -468 0
887 468 0
-888 -471 0
888 471 0
-889 -474 0
889 474 0
-890 -477 0
890 477 0
-891 -480 0
891 480 0
-892 -483 0
892 483 0
-893 -486 0
893 486 0
-894 -489 0
894 489 0
-895 -492 0
895 492 0
-896 -495 0
896 495 0
-897 -498 0
897 498 0
-898 -50 0
898 50 0
-899 -501 0
899 501 0
-900 -504 0
900 504 0
-901 -507 0
901 507 0
-902 -510 0
902 510 0
-903 -513 0
903 513 0
-904 -516 0
904 516 0
-905 -519 0
905 519 0
-906 -522 0
906 522 0
-907 -525 0
907 525 0
-908 -528 0
908 528 0
-909 -531 0
909 531 0
-910 -534 0
910 534 0
-911 -537 0
911 537 0
-912 -540 0
912 540 0
-913 -543 0
913 543 0
-914 -546 0
914 546 0
-915 -549 0
915 549 0
-916 -552 0
916 552 0
-917 -555 0
917 555 0
-918 -558 0
918 558 0
-919 -561 0
919 561 0
-920 -564 0
920 564 0
-921 -567 0
921 567 0
-922 -570 0
922 570 0
-923 -573 0
923 573 0
-924 -576 0
924 576 0
-925 -579 0
925 579 0
-926 -582 0
926 582 0
-927 -585 0
927 585 0
-928 -588 0
928 588 0
-929 -591 0
929 591 0
-930 -594 0
930 594 0
-931 -597 0
931 597 0
-932 -600 0
932 600 0
-933 -603 0
933 603 0
-934 -606 0
934 606 0
-935 -609 0
935 609 0
-936 -612 0
936 612 0
-937 -614 0
937 614 0
-938 -617 0
938 617 0
-939 -620 0
939 620 0
-940 -623 0
940 623 0
-941 -626 0
941 626 0
-942 -629 0
942 629 0
-943 -632 0
943 632 0
-944 -635 0
944 635 0
-945 -638 0
945 638 0
-946 -641 0
946 641 0
-947 -644 0
947 644 0
-948 -647 0
948 647 0
-949 -650 0
949 650 0
-950 -652 0
950 652 0
-951 -655 0
951 655 0
-952 -658 0
952 658 0
-953 -661 0
953 661 0
-954 -664 0
954 664 0
-955 -667 0
955 667 0
-956 -670 0
956 670 0
-957 -673 0
957 673 0
-958 -676 0
958 676 0
-959 -678 0
959 678 0
-960 -681 0
960 681 0
-961 -684 0
961 684 0
-962 -687 0
962 687 0
-963 -690 0
963 690 0
-964 -693 0
964 693 0
-965 -696 0
965 696 0
697 0
